p tw 20 73
1 2
1 13
1 16
1 19
1 20
1 7
1 9
2 14
2 15
2 16
2 17
2 4
2 5
2 6
2 7
2 9
2 10
11 16
12 18
13 19
3 11
3 14
3 16
3 18
3 19
3 4
3 5
3 7
4 11
4 13
4 15
4 17
4 19
4 20
4 6
4 7
4 9
4 10
5 12
5 14
5 17
5 18
5 6
5 7
5 10
6 11
6 13
6 15
6 16
6 19
6 9
7 13
7 14
7 17
7 18
7 19
7 20
7 8
8 11
8 14
8 17
8 19
8 10
9 11
9 14
9 17
9 18
9 19
9 20
10 12
10 14
10 15
10 17
